18
azulene, UB3LYP/6-31G optimised (Gaussian 03, 2011); final geometry from Azulene aligned v2.out
C    -0.55424    0.75359    0.00010
C     0.55434    1.59900    0.00026
C     1.91555    1.26862    0.00005
C     2.50983    0.00001   -0.00010
C     1.91556   -1.26862   -0.00010
C     0.55437   -1.59899   -0.00010
C    -0.55423   -0.75360   -0.00007
C    -1.90777    1.15337   -0.00020
C    -2.71773   -0.00000   -0.00024
C    -1.90775   -1.15339    0.00040
H     0.32824    2.66484    0.00037
H     2.60383    2.11027    0.00003
H     3.59850    0.00002   -0.00018
H     2.60387   -2.11024   -0.00008
H     0.32825   -2.66483    0.00000
H    -2.25494    2.17791   -0.00038
H    -3.80055   -0.00003   -0.00040
H    -2.25486   -2.17795    0.00073
